Traveling Salesman Problem/TSP_generados/Aleatorio1620390941_10.tsp
NAME: Aleatorio1620390941_10.tsp
COMMENT: Randomly generated scenario
TYPE: TSP
DIMENSION: 10
EDGE_WEIGHT_TYPE: ATT
NODE_COORD_SECTION
1 46.38 6.01
2 40.41 42.59
3 6.6 5.63
4 19.17 0.2
5 46.76 17.41
6 7.29 15.14
7 4.63 24.35
8 22.23 29.99
9 43.5 2.27
10 24.69 36.1
