Traveling Salesman Problem/TSP_generados/Aleatorio1620390941_10.opt.tour
NAME: Aleatorio1620390941_10.opt.tour
COMMENT: Optimal solution for Aleatorio1620390941_10 (141.40232489025908)
TYPE: TOUR
DIMENSION: 10
TOUR_SECTION
1 5 2 10 8 7 6 3 4 9
-1
EOF
